# Objective value = 5
a00 0
a01 0
a02 0
a03 1
a10 0
a11 1
a12 0
a13 0
a20 0
a21 0
a22 1
a23 0
a30 1
a31 0
a32 0
a33 0
a40 0
a41 1
a42 0
a43 0
x00 0
x01 0
x02 0
x03 0
x04 0
x05 0
x06 0
x07 0
x08 0
x09 0
x0a 0
x0b 0
x0c 0
x0d 0
x0e 0
x0f 1
x1e 0
x18 0
x1b 0
x1c 0
x1f 0
x1d 1
x12 0
x10 0
x11 0
x14 0
x15 0
x17 0
x13 0
x16 0
x1a 0
x19 0
x2e 0
x28 0
x2b 0
x2c 0
x2f 0
x2d 0
x22 0
x20 0
x21 0
x24 0
x25 1
x27 0
x23 0
x26 0
x2a 0
x29 0
x3e 0
x38 1
x3b 0
x3c 0
x3f 0
x3d 0
x32 0
x30 0
x31 0
x34 0
x35 0
x37 0
x33 0
x36 0
x3a 0
x39 0
x4e 0
x48 0
x4b 0
x4c 0
x4f 0
x4d 0
x42 0
x40 1
x41 0
x44 0
x45 0
x47 0
x43 0
x46 0
x4a 0
x49 0
x50 0
x51 0
x52 0
x53 0
x54 0
x55 0
x56 0
x57 1
x58 0
x59 0
x5a 0
x5b 0
x5c 0
x5d 0
x5e 0
x5f 0
